qbf_easy_train/easy_2724_UNSAT.qdimacs
p cnf 37 103
a 19 13 30 0
e 1 2 3 4 5 6 7 8 9 10 11 12 14 15 16 17 18 20 21 22 23 24 25 26 27 28 29 31 32 33 34 35 36 37 0
1 2 -3 0
-1 -2 -3 0
1 -2 3 0
-1 2 3 0
5 3 0
5 -4 0
-3 4 -5 0
9 7 0
9 8 0
-7 -8 -9 0
-10 9 0
-10 -7 0
-9 7 10 0
-11 -6 0
-11 10 0
6 -10 11 0
5 -11 -12 0
-5 11 -12 0
5 11 12 0
-5 -11 12 0
-14 13 0
-14 13 0
-13 14 0
15 6 0
15 14 0
-6 -14 -15 0
17 1 0
17 -16 0
-1 16 -17 0
-15 -17 -18 0
15 17 -18 0
-15 17 18 0
15 -17 18 0
19 12 0
19 18 0
-12 -18 -19 0
-20 13 0
-20 7 0
-13 -7 20 0
19 -20 -21 0
-19 20 -21 0
19 20 21 0
-19 -20 21 0
22 -11 0
22 -4 0
11 4 -22 0
-23 -13 0
-23 -2 0
13 2 23 0
-24 23 0
-24 -8 0
-23 8 24 0
25 -24 0
25 8 0
24 -8 -25 0
-26 10 0
-26 25 0
-10 -25 26 0
-27 22 0
-27 26 0
-22 -26 27 0
28 5 0
28 -7 0
-5 7 -28 0
-29 27 0
-29 -28 0
-27 28 29 0
-30 -21 0
-30 -29 0
21 29 30 0
-7 5 -31 0
7 -5 -31 0
-7 -5 31 0
7 5 31 0
-32 -1 0
-32 -11 0
1 11 32 0
-33 -1 0
-33 -32 0
1 32 33 0
-34 -31 0
-34 33 0
31 -33 34 0
35 -11 0
35 -8 0
11 8 -35 0
36 34 0
36 35 0
-34 -35 -36 0
30 -36 -37 0
-30 36 -37 0
30 36 37 0
-30 -36 37 0
16 -32 36 -19 -6 -9 0
30 -35 -8 14 -28 0
-11 34 -3 0
-33 22 24 37 -34 16 -9 0
27 -14 -4 -28 -1 0
-1 -24 -33 -3 -9 18 -27 0
23 16 36 6 15 -7 3 0
-29 -19 -30 31 -4 -27 -15 -2 0
30 -10 27 -22 0
37 0
