sat_easy_train/easy_2724_UNSAT.dimacs
p cnf 123 408
-5 -3 0
-5 4 0
3 -4 5 0
-6 -1 0
-6 -5 0
1 5 6 0
-7 -1 0
-7 6 0
1 -6 7 0
8 2 0
8 -7 0
-2 7 -8 0
8 -3 -9 0
-8 3 -9 0
8 3 9 0
-8 -3 9 0
-10 -1 0
-10 9 0
1 -9 10 0
13 12 0
13 4 0
-12 -4 -13 0
11 13 -14 0
-11 -13 -14 0
11 -13 14 0
-11 13 14 0
-15 -10 0
-15 -14 0
10 14 15 0
17 -16 0
17 -2 0
16 2 -17 0
18 -15 0
18 -17 0
15 17 -18 0
19 -1 0
19 5 0
1 -5 -19 0
21 2 -22 0
-21 -2 -22 0
21 -2 22 0
-21 2 22 0
-23 -20 0
-23 22 0
20 -22 23 0
-24 -19 0
-24 23 0
19 -23 24 0
6 24 -25 0
-6 -24 -25 0
6 -24 25 0
-6 24 25 0
-26 11 0
-26 -7 0
-11 7 26 0
-27 26 0
-27 -16 0
-26 16 27 0
-28 -25 0
-28 27 0
25 -27 28 0
1 -16 -29 0
-1 16 -29 0
1 16 29 0
-1 -16 29 0
2 -19 -30 0
-2 19 -30 0
2 19 30 0
-2 -19 30 0
-31 -29 0
-31 -30 0
29 30 31 0
-5 -33 -34 0
5 33 -34 0
-5 33 34 0
5 -33 34 0
16 34 -35 0
-16 -34 -35 0
16 -34 35 0
-16 34 35 0
32 -35 -36 0
-32 35 -36 0
32 35 36 0
-32 -35 36 0
37 -12 0
37 30 0
12 -30 -37 0
-37 32 -38 0
37 -32 -38 0
-37 -32 38 0
37 32 38 0
4 32 -39 0
-4 -32 -39 0
4 -32 39 0
-4 32 39 0
39 -7 -40 0
-39 7 -40 0
39 7 40 0
-39 -7 40 0
41 -38 0
41 40 0
38 -40 -41 0
-42 -36 0
-42 41 0
36 -41 42 0
44 21 0
44 -43 0
-21 43 -44 0
45 42 0
45 -44 0
-42 44 -45 0
-46 31 0
-46 -45 0
-31 45 46 0
47 28 0
47 -46 0
-28 46 -47 0
3 -48 -49 0
-3 48 -49 0
3 48 49 0
-3 -48 49 0
50 -49 0
50 8 0
49 -8 -50 0
19 5 -52 0
-19 -5 -52 0
19 -5 52 0
-19 5 52 0
-4 -52 -53 0
4 52 -53 0
-4 52 53 0
4 -52 53 0
54 51 0
54 -53 0
-51 53 -54 0
-53 -32 -55 0
53 32 -55 0
-53 32 55 0
53 -32 55 0
56 55 0
56 30 0
-55 -30 -56 0
-5 16 -57 0
5 -16 -57 0
-5 -16 57 0
5 16 57 0
57 11 -58 0
-57 -11 -58 0
57 -11 58 0
-57 11 58 0
-12 -16 -59 0
12 16 -59 0
-12 16 59 0
12 -16 59 0
-60 -58 0
-60 59 0
58 -59 60 0
-61 5 0
-61 -20 0
-5 20 61 0
62 -48 0
62 61 0
48 -61 -62 0
62 -34 -63 0
-62 34 -63 0
62 34 63 0
-62 -34 63 0
64 60 0
64 63 0
-60 -63 -64 0
16 -13 -65 0
-16 13 -65 0
16 13 65 0
-16 -13 65 0
66 49 0
66 6 0
-49 -6 -66 0
-67 66 0
-67 -39 0
-66 39 67 0
-39 -67 -68 0
39 67 -68 0
-39 67 68 0
39 -67 68 0
-65 68 -69 0
65 -68 -69 0
-65 -68 69 0
65 68 69 0
-70 -66 0
-70 32 0
66 -32 70 0
-71 1 0
-71 -58 0
-1 58 71 0
72 -70 0
72 -71 0
70 71 -72 0
3 -58 -73 0
-3 58 -73 0
3 58 73 0
-3 -58 73 0
-74 5 0
-74 7 0
-5 -7 74 0
75 73 0
75 -74 0
-73 74 -75 0
76 72 0
76 75 0
-72 -75 -76 0
-77 69 0
-77 76 0
-69 -76 77 0
64 -77 -78 0
-64 77 -78 0
64 77 78 0
-64 -77 78 0
-79 -56 0
-79 78 0
56 -78 79 0
-30 -29 -80 0
30 29 -80 0
-30 29 80 0
30 -29 80 0
-82 26 0
-82 81 0
-26 -81 82 0
83 -21 0
83 -82 0
21 82 -83 0
84 -80 0
84 83 0
80 -83 -84 0
85 -4 0
85 -32 0
4 32 -85 0
-86 33 0
-86 57 0
-33 -57 86 0
-87 -86 0
-87 -32 0
86 32 87 0
88 -87 0
88 -61 0
87 61 -88 0
-89 -85 0
-89 -88 0
85 88 89 0
-90 84 0
-90 -89 0
-84 89 90 0
-79 90 -91 0
79 -90 -91 0
-79 -90 91 0
79 90 91 0
92 -54 0
92 91 0
54 -91 -92 0
93 50 0
93 -92 0
-50 92 -93 0
-94 -47 0
-94 -93 0
47 93 94 0
18 94 -95 0
-18 -94 -95 0
18 -94 95 0
-18 94 95 0
-96 -52 0
-96 -88 0
52 88 96 0
13 43 -97 0
-13 -43 -97 0
13 -43 97 0
-13 43 97 0
-98 97 0
-98 -20 0
-97 20 98 0
99 -96 0
99 -98 0
96 98 -99 0
-20 -100 -101 0
20 100 -101 0
-20 100 101 0
20 -100 101 0
-102 19 0
-102 -87 0
-19 87 102 0
-103 -32 0
-103 102 0
32 -102 103 0
104 103 0
104 -61 0
-103 61 -104 0
105 -26 0
105 6 0
26 -6 -105 0
106 104 0
106 105 0
-104 -105 -106 0
-107 101 0
-107 106 0
-101 -106 107 0
108 -21 0
108 6 0
21 -6 -108 0
109 -87 0
109 -87 0
87 -109 0
-110 -53 0
-110 32 0
53 -32 110 0
111 -109 0
111 -110 0
109 110 -111 0
-112 43 0
-112 20 0
-43 -20 112 0
113 111 0
113 -112 0
-111 112 -113 0
-114 -108 0
-114 -113 0
108 113 114 0
115 -5 0
115 11 0
5 -11 -115 0
5 -85 -116 0
-5 85 -116 0
5 85 116 0
-5 -85 116 0
117 62 0
117 20 0
-62 -20 -117 0
-116 -117 -118 0
116 117 -118 0
-116 117 118 0
116 -117 118 0
119 -115 0
119 -118 0
115 118 -119 0
-120 -114 0
-120 119 0
114 -119 120 0
121 107 0
121 120 0
-107 -120 -121 0
-122 99 0
-122 -121 0
-99 121 122 0
-95 122 -123 0
95 -122 -123 0
-95 -122 123 0
95 122 123 0
-109 -78 -16 51 0
-85 -99 0
-24 -98 -95 0
41 110 -32 -67 -118 -27 0
91 123 0
94 23 71 0
-32 9 101 116 -4 0
-112 5 -27 51 117 0
-115 82 0
30 -52 0
-85 -52 0
1 -59 121 70 0
-4 -60 123 -111 -75 0
11 117 -72 86 -84 -19 0
23 11 0
-71 -107 106 -86 0
-100 119 66 0
-17 42 -113 0
-49 4 -40 87 94 0
123 17 -117 119 -108 -70 0
-101 61 -1 63 0
-46 -45 -77 86 -96 0
-9 -17 -24 0
24 -97 -45 -114 0
-30 -101 0
-106 103 79 0
65 19 92 0
118 -85 -45 16 31 0
23 10 -110 0
-37 -112 87 0
-114 -50 0
25 50 -74 -96 -110 0
42 78 -24 0
-95 -11 -61 -45 -73 0
68 -11 0
-12 22 -80 112 -11 0
118 123 105 6 0
-119 37 113 0
-100 23 -48 -95 0
-105 29 7 -74 -60 0
-83 -92 -77 25 7 106 0
-89 -39 3 -92 -102 -55 0
109 -11 25 44 0
-115 -72 51 0
28 101 92 0
-44 66 104 -84 -62 0
-49 -9 0
37 -8 0
-112 73 0
-13 -9 -28 -113 91 0
-96 54 0
2 82 80 -13 14 -54 0
13 119 -54 0
123 0
